letting n =  10
letting blocks =  [[1, 1], [1, 2], [1, 3], [1, 4], [2, 3], [2, 7], [3, 2], [4, 4], [5, 5], [5, 7], [5, 8], [6, 1], [6, 2], [6, 4], [6, 8], [7, 2], [7, 5], [7, 7], [7, 9], [8, 8], [9, 3], [9, 6], [9, 8], [10, 1], [10, 5], [10, 8]]
